100
120
100
100
96
96
95
95
94
93
92
92
90
89
89
88
88
87
87
87
86
86
85
85
85
85
85
84
83
82
77
77
77
76
74
74
72
72
72
71
70
69
67
67
66
62
62
60
59
59
59
57
57
56
56
56
55
53
52
52
51
49
48
47
46
43
43
43
43
43
41
41
40
40
39
38
37
36
36
36
36
35
34
34
33
33
33
33
31
31
29
28
27
27
24
24
23
22
21
20
20
20
